db/data/25855213781178126643199831110805123279.z3.out
-------------------
2500.145186157
